(set-logic QF_S)
(declare-fun var_0xINPUT_271642 () String)
(assert (and (= (len var_0xINPUT_271642) 0) (= (len var_0xINPUT_271642) 0) (not (= var_0xINPUT_271642 "ywUN4ZIDAC"))))
(check-sat var_0xINPUT_271642)